m = 8; % number of couriers
n = 10; % number of packages

l = [21, 20, 20, 23, 15, 18, 24, 25]; % maximum carriable weight per courier
s = [15, 5, 7, 6, 15, 13, 11, 12, 8, 6]; % weight of each package

D = % distance matrix 
	 [| 13, 15, 9, 6, 13, 15, 11, 6, 14, 20, 14
	 | 5, 19, 20, 20, 5, 20, 13, 16, 11, 19, 6
	 | 5, 18, 8, 18, 18, 17, 7, 5, 5, 7, 20
	 | 14, 12, 10, 8, 7, 13, 11, 14, 18, 17, 7
	 | 19, 20, 14, 16, 17, 18, 12, 5, 19, 12, 9
	 | 14, 20, 20, 6, 20, 5, 5, 19, 16, 17, 17
	 | 13, 17, 10, 20, 17, 10, 13, 11, 13, 15, 6
	 | 19, 5, 15, 12, 18, 20, 20, 14, 16, 5, 17
	 | 20, 13, 20, 12, 17, 9, 10, 20, 7, 15, 12
	 | 14, 16, 10, 11, 9, 17, 16, 7, 11, 6, 6
	 | 17, 20, 10, 14, 5, 11, 16, 6, 18, 8, 8
	 |];